33D32945 STP File, STP Format Version 1.0

SECTION Comments
Name "edge_n13_d2_s42"
Problem "Euclidean Steiner Tree Problem"
Remark "Generated with STPGenerator. 2 dimensions."
END

SECTION Graph
Nodes 13
END

SECTION Coordinates
DD 0 0.0334699480 0.0334699480
DD 1 0.3299642076 0.3299642076
DD 2 0.6906357043 0.6906357043
DD 3 0.4224866822 0.4224866822
DD 4 0.2062651386 0.2062651386
DD 5 0.2501284509 0.2501284509
DD 6 0.6365585242 0.6365585242
DD 7 0.8636223808 0.8636223808
DD 8 0.3016556312 0.3016556312
DD 9 0.0249239351 0.0249239351
DD 10 0.3649927091 0.3649927091
DD 11 0.7653809822 0.7653809822
DD 12 0.3178602631 0.3178602631
END
